(set-logic QF_S)
(declare-fun var0 () String)
(declare-fun var1 () Int)
(declare-fun var2 () Bool)
(declare-fun var3 () String)
(declare-fun var4 () Int)
(declare-fun var5 () Bool)
(declare-fun var6 () String)
(declare-fun var7 () Int)
(declare-fun var8 () Bool)
(assert (< (str.len (str.replace var3 var0 var6)) (str.indexof var0 var3 var7)))
(assert (str.prefixof (str.replace "MUxw9!`q)L" var0 var3) (str.replace var0 var0 var0)))
(assert (str.prefixof var3 "Z]cK<+\\e5<"))
(assert (str.contains var0 "<GIt^>TP5["))
(check-sat)